NAME : single.56548.tour
COMMENT : Length = 56548
COMMENT : Found by LKH [Keld Helsgaun] Tue Aug 20 23:52:09 2024
TYPE : TOUR
DIMENSION : 47
TOUR_SECTION
1
44
45
47
46
41
43
42
40
39
38
37
36
34
35
33
32
30
31
29
28
27
26
25
24
23
22
21
19
16
17
18
15
13
12
11
10
9
14
5
6
4
20
3
2
8
7
-1
EOF
